
Gurobi 6.5.2 (linux64) logging started Mon Aug 29 10:57:51 2016

Optimize a model with 41 rows, 115 columns and 231 nonzeros
Coefficient statistics:
  Matrix range    [1e+00, 2e+00]
  Objective range [8e+00, 1e+02]
  Bounds range    [1e+00, 1e+00]
  RHS range       [1e+00, 1e+00]
Found heuristic solution: objective 1169
Presolve removed 21 rows and 20 columns
Presolve time: 0.00s
Presolved: 20 rows, 95 columns, 190 nonzeros
Variable types: 0 continuous, 95 integer (95 binary)

Root relaxation: objective 7.170000e+02, 31 iterations, 0.00 seconds

    Nodes    |    Current Node    |     Objective Bounds      |     Work
 Expl Unexpl |  Obj  Depth IntInf | Incumbent    BestBd   Gap | It/Node Time

     0     0  717.00000    0    6 1169.00000  717.00000  38.7%     -    0s
H    0     0                    1018.0000000  717.00000  29.6%     -    0s
H    0     0                     785.0000000  717.00000  8.66%     -    0s
H    0     0                     746.0000000  717.00000  3.89%     -    0s
H    0     0                     737.0000000  717.00000  2.71%     -    0s
*    0     0               0     719.0000000  719.00000  0.00%     -    0s

Cutting planes:
  Gomory: 1
  Zero half: 2

Explored 0 nodes (37 simplex iterations) in 0.00 seconds
Thread count was 8 (of 8 available processors)

Optimal solution found (tolerance 1.00e-04)
Best objective 7.190000000000e+02, best bound 7.190000000000e+02, gap 0.0%
